(set-info :origin "Horn problem converted to SMT-LIB2 using Eldarica (https://github.com/uuverifiers/eldarica)")
(set-logic HORN)
(declare-fun INV_MAIN_42 (Int Int Int Int Int Int Int Int Int Int) Bool)
(assert (forall ((A Int) (B Int) (C Int) (D Int) (E Int) (F Int) (G Int) (H Int) (I Int) (J Int))(=> (and (and (and (and (and (and (and (and (not (and (= (- E C) (- 1)) (not (= F A)))) (not (and (= (- E D) (- 1)) (not (= F A))))) (not (and (= (- I C) (- 1)) (not (= J A))))) (not (and (= (- I D) (- 1)) (not (= J A))))) (not (and (= I E) (not (= J F))))) (not (= A 0))) (= B A)) (= G D)) (= H C)) (INV_MAIN_42 A B C D E F G H I J))))
(assert (forall ((A Int) (B Int) (C Int) (D Int) (E Int) (F Int) (G Int) (H Int) (I Int) (J Int) (K Int) (L Int) (M Int) (N Int) (O Int) (P Int) (Q Int) (R Int) (S Int) (T Int) (U Int) (V Int) (W Int) (X Int) (Y Int) (Z Int) (A1 Int) (B1 Int) (C1 Int) (D1 Int) (E1 Int) (F1 Int) (G1 Int) (H1 Int) (I1 Int) (J1 Int) (K1 Int) (L1 Int) (M1 Int) (N1 Int)) (not (and (and (and (and (and (and (and (and (and (and (and (and (and (and (and (and (and (and (and (and (and (and (and (and (and (and (and (and (and (and (and (and (and (and (and (and (and (and (INV_MAIN_42 A B C D E F G H I J) (INV_MAIN_42 K L M N O P Q R S T)) (INV_MAIN_42 U V W X Y Z A1 B1 C1 D1)) (INV_MAIN_42 E1 F1 G1 H1 I1 J1 K1 L1 M1 N1)) (not (= H1 G1))) (not (= J1 0))) (= I1 H1)) (= M1 K1)) (= N1 0)) (= U E1)) (= V F1)) (= W G1)) (= X H1)) (= Y H1)) (= Z J1)) (= A1 K1)) (= B1 L1)) (= C1 L1)) (= D1 0)) (= K E1)) (= L F1)) (= M G1)) (= N H1)) (= O G1)) (= P 0)) (= Q K1)) (= R L1)) (= S K1)) (= T 0)) (= A E1)) (= B F1)) (= C G1)) (= D H1)) (= E G1)) (= F 0)) (= G K1)) (= H L1)) (= I L1)) (= J 0)))))
(assert (forall ((A Int) (B Int) (C Int) (D Int) (E Int) (F Int) (G Int) (H Int) (I Int) (J Int) (K Int) (L Int) (M Int) (N Int) (O Int) (P Int) (Q Int) (R Int) (S Int) (T Int) (U Int) (V Int) (W Int) (X Int) (Y Int) (Z Int) (A1 Int) (B1 Int) (C1 Int) (D1 Int) (E1 Int) (F1 Int) (G1 Int) (H1 Int) (I1 Int) (J1 Int) (K1 Int) (L1 Int) (M1 Int) (N1 Int) (O1 Int) (P1 Int) (Q1 Int) (R1 Int) (S1 Int) (T1 Int) (U1 Int) (V1 Int) (W1 Int) (X1 Int) (Y1 Int) (Z1 Int) (A2 Int) (B2 Int) (C2 Int) (D2 Int) (E2 Int) (F2 Int) (G2 Int) (H2 Int)) (not (and (and (and (and (and (and (and (and (and (and (and (and (and (and (and (and (and (and (and (and (and (and (and (and (and (and (and (and (and (and (and (and (and (and (and (and (and (and (and (and (and (and (and (and (and (and (and (and (and (and (and (and (and (and (and (and (and (and (and (and (INV_MAIN_42 A B C D E F G H I J) (INV_MAIN_42 K L M N O P Q R S T)) (INV_MAIN_42 U V W X Y Z A1 B1 C1 D1)) (INV_MAIN_42 E1 F1 G1 H1 I1 J1 K1 L1 M1 N1)) (INV_MAIN_42 O1 P1 Q1 R1 S1 T1 U1 V1 W1 X1)) (INV_MAIN_42 Y1 Z1 A2 B2 C2 D2 E2 F2 G2 H2)) (not (and (= C2 A2) (not (= D2 0))))) (not (and (= E2 C2) (not (= H2 0))))) (not (and (= F2 C2) (not (= H2 0))))) (not (= H2 D2))) (= G2 C2)) (= O1 Y1)) (= P1 Z1)) (= Q1 A2)) (= R1 B2)) (= S1 C2)) (= T1 D2)) (= U1 E2)) (= V1 F2)) (= W1 E2)) (= X1 0)) (= E1 Y1)) (= F1 Z1)) (= G1 A2)) (= H1 B2)) (= I1 C2)) (= J1 D2)) (= K1 E2)) (= L1 F2)) (= M1 F2)) (= N1 0)) (= U Y1)) (= V Z1)) (= W A2)) (= X B2)) (= Y A2)) (= Z 0)) (= A1 E2)) (= B1 F2)) (= C1 C2)) (= D1 H2)) (= K Y1)) (= L Z1)) (= M A2)) (= N B2)) (= O A2)) (= P 0)) (= Q E2)) (= R F2)) (= S E2)) (= T 0)) (= A Y1)) (= B Z1)) (= C A2)) (= D B2)) (= E A2)) (= F 0)) (= G E2)) (= H F2)) (= I F2)) (= J 0)))))
(assert (forall ((A Int) (B Int) (C Int) (D Int) (E Int) (F Int) (G Int) (H Int) (I Int) (J Int) (K Int) (L Int) (M Int) (N Int) (O Int) (P Int) (Q Int) (R Int) (S Int) (T Int) (U Int) (V Int) (W Int) (X Int) (Y Int) (Z Int) (A1 Int) (B1 Int) (C1 Int) (D1 Int) (E1 Int) (F1 Int) (G1 Int) (H1 Int) (I1 Int) (J1 Int) (K1 Int) (L1 Int) (M1 Int) (N1 Int)) (not (and (and (and (and (and (and (and (and (and (and (and (and (and (and (and (and (and (and (and (and (and (and (and (and (and (and (and (and (and (and (and (and (and (and (and (and (and (and (INV_MAIN_42 A B C D E F G H I J) (INV_MAIN_42 K L M N O P Q R S T)) (INV_MAIN_42 U V W X Y Z A1 B1 C1 D1)) (INV_MAIN_42 E1 F1 G1 H1 I1 J1 K1 L1 M1 N1)) (not (and (= H1 G1) (not (= J1 0))))) (not (= L1 K1))) (not (= D1 N1))) (not (= (+ D1 (- J1 N1)) 0))) (= I1 H1)) (= M1 K1)) (= U E1)) (= V F1)) (= W G1)) (= X H1)) (= Y H1)) (= Z J1)) (= A1 K1)) (= B1 L1)) (= C1 L1)) (= K E1)) (= L F1)) (= M G1)) (= N H1)) (= O G1)) (= P 0)) (= Q K1)) (= R L1)) (= S K1)) (= T N1)) (= A E1)) (= B F1)) (= C G1)) (= D H1)) (= E G1)) (= F 0)) (= G K1)) (= H L1)) (= I L1)) (= J D1)))))
(assert (forall ((A Int) (B Int) (C Int) (D Int) (E Int) (F Int) (G Int) (H Int) (I Int) (J Int) (K Int) (L Int) (M Int) (N Int) (O Int) (P Int) (Q Int) (R Int) (S Int) (T Int) (U Int) (V Int) (W Int) (X Int) (Y Int) (Z Int) (A1 Int) (B1 Int) (C1 Int) (D1 Int) (E1 Int) (F1 Int) (G1 Int) (H1 Int) (I1 Int) (J1 Int) (K1 Int) (L1 Int) (M1 Int) (N1 Int) (O1 Int) (P1 Int) (Q1 Int) (R1 Int) (S1 Int) (T1 Int) (U1 Int) (V1 Int) (W1 Int) (X1 Int) (Y1 Int) (Z1 Int) (A2 Int) (B2 Int) (C2 Int) (D2 Int) (E2 Int) (F2 Int) (G2 Int) (H2 Int)) (not (and (and (and (and (and (and (and (and (and (and (and (and (and (and (and (and (and (and (and (and (and (and (and (and (and (and (and (and (and (and (and (and (and (and (and (and (and (and (and (and (and (and (and (and (and (and (and (and (and (and (and (and (and (and (and (and (and (and (and (and (INV_MAIN_42 A B C D E F G H I J) (INV_MAIN_42 K L M N O P Q R S T)) (INV_MAIN_42 U V W X Y Z A1 B1 C1 D1)) (INV_MAIN_42 E1 F1 G1 H1 I1 J1 K1 L1 M1 N1)) (INV_MAIN_42 O1 P1 Q1 R1 S1 T1 U1 V1 W1 X1)) (INV_MAIN_42 Y1 Z1 A2 B2 C2 D2 E2 F2 G2 H2)) (not (and (= C2 A2) (not (= D2 0))))) (not (and (= E2 C2) (not (= X1 H2))))) (not (and (= F2 C2) (not (= N1 H2))))) (not (= F2 E2))) (not (= H2 D2))) (not (= N1 X1))) (= G2 C2)) (= O1 Y1)) (= P1 Z1)) (= Q1 A2)) (= R1 B2)) (= S1 C2)) (= T1 D2)) (= U1 E2)) (= V1 F2)) (= W1 E2)) (= E1 Y1)) (= F1 Z1)) (= G1 A2)) (= H1 B2)) (= I1 C2)) (= J1 D2)) (= K1 E2)) (= L1 F2)) (= M1 F2)) (= U Y1)) (= V Z1)) (= W A2)) (= X B2)) (= Y A2)) (= Z 0)) (= A1 E2)) (= B1 F2)) (= C1 C2)) (= D1 H2)) (= K Y1)) (= L Z1)) (= M A2)) (= N B2)) (= O A2)) (= P 0)) (= Q E2)) (= R F2)) (= S E2)) (= T X1)) (= A Y1)) (= B Z1)) (= C A2)) (= D B2)) (= E A2)) (= F 0)) (= G E2)) (= H F2)) (= I F2)) (= J N1)))))
(assert (forall ((A Int) (B Int) (C Int) (D Int) (E Int) (F Int) (G Int) (H Int) (I Int) (J Int) (K Int) (L Int) (M Int) (N Int) (O Int) (P Int) (Q Int) (R Int) (S Int) (T Int) (U Int) (V Int) (W Int) (X Int) (Y Int) (Z Int) (A1 Int) (B1 Int) (C1 Int) (D1 Int) (E1 Int) (F1 Int) (G1 Int) (H1 Int) (I1 Int) (J1 Int) (K1 Int) (L1 Int) (M1 Int) (N1 Int) (O1 Int) (P1 Int) (Q1 Int) (R1 Int) (S1 Int) (T1 Int) (U1 Int) (V1 Int) (W1 Int) (X1 Int) (Y1 Int) (Z1 Int) (A2 Int) (B2 Int) (C2 Int) (D2 Int) (E2 Int) (F2 Int) (G2 Int) (H2 Int) (I2 Int) (J2 Int) (K2 Int) (L2 Int) (M2 Int) (N2 Int) (O2 Int) (P2 Int) (Q2 Int) (R2 Int) (S2 Int) (T2 Int) (U2 Int) (V2 Int) (W2 Int) (X2 Int) (Y2 Int) (Z2 Int) (A3 Int) (B3 Int) (C3 Int) (D3 Int) (E3 Int) (F3 Int) (G3 Int) (H3 Int) (I3 Int) (J3 Int) (K3 Int) (L3 Int)) (not (and (and (and (and (and (and (and (and (and (and (and (and (and (and (and (and (and (and (and (and (and (and (and (and (and (and (and (and (and (and (and (and (and (and (and (and (and (and (and (and (and (and (and (and (and (and (and (and (and (and (and (and (and (and (and (and (and (and (and (and (and (and (and (and (and (and (and (and (and (and (and (and (and (and (and (and (and (and (and (and (and (and (and (and (and (and (and (and (and (and (and (and (and (and (and (INV_MAIN_42 A B C D E F G H I J) (INV_MAIN_42 K L M N O P Q R S T)) (INV_MAIN_42 U V W X Y Z A1 B1 C1 D1)) (INV_MAIN_42 E1 F1 G1 H1 I1 J1 K1 L1 M1 N1)) (INV_MAIN_42 O1 P1 Q1 R1 S1 T1 U1 V1 W1 X1)) (INV_MAIN_42 Y1 Z1 A2 B2 C2 D2 E2 F2 G2 H2)) (INV_MAIN_42 I2 J2 K2 L2 M2 N2 O2 P2 Q2 R2)) (INV_MAIN_42 S2 T2 U2 V2 W2 X2 Y2 Z2 A3 B3)) (INV_MAIN_42 C3 D3 E3 F3 G3 H3 I3 J3 K3 L3)) (not (and (= G3 E3) (not (= Z H3))))) (not (and (= G3 F3) (not (= D2 H3))))) (not (and (= I3 G3) (not (= L3 0))))) (not (and (= J3 G3) (not (= L3 0))))) (not (= F3 E3))) (not (= L3 H3))) (not (= Z 0))) (not (= Z D2))) (= K3 G3)) (= S2 C3)) (= T2 D3)) (= U2 E3)) (= V2 F3)) (= W2 G3)) (= X2 H3)) (= Y2 I3)) (= Z2 J3)) (= A3 I3)) (= B3 0)) (= I2 C3)) (= J2 D3)) (= K2 E3)) (= L2 F3)) (= M2 G3)) (= N2 H3)) (= O2 I3)) (= P2 J3)) (= Q2 J3)) (= R2 0)) (= Y1 C3)) (= Z1 D3)) (= A2 E3)) (= B2 F3)) (= C2 F3)) (= E2 I3)) (= F2 J3)) (= G2 G3)) (= H2 L3)) (= O1 C3)) (= P1 D3)) (= Q1 E3)) (= R1 F3)) (= S1 F3)) (= T1 D2)) (= U1 I3)) (= V1 J3)) (= W1 I3)) (= X1 0)) (= E1 C3)) (= F1 D3)) (= G1 E3)) (= H1 F3)) (= I1 F3)) (= J1 D2)) (= K1 I3)) (= L1 J3)) (= M1 J3)) (= N1 0)) (= U C3)) (= V D3)) (= W E3)) (= X F3)) (= Y E3)) (= A1 I3)) (= B1 J3)) (= C1 G3)) (= D1 L3)) (= K C3)) (= L D3)) (= M E3)) (= N F3)) (= O E3)) (= P Z)) (= Q I3)) (= R J3)) (= S I3)) (= T 0)) (= A C3)) (= B D3)) (= C E3)) (= D F3)) (= E E3)) (= F Z)) (= G I3)) (= H J3)) (= I J3)) (= J 0)))))
(assert (forall ((A Int) (B Int) (C Int) (D Int) (E Int) (F Int) (G Int) (H Int) (I Int) (J Int) (K Int) (L Int) (M Int) (N Int) (O Int) (P Int) (Q Int) (R Int) (S Int) (T Int) (U Int) (V Int) (W Int) (X Int) (Y Int) (Z Int) (A1 Int) (B1 Int) (C1 Int) (D1 Int) (E1 Int) (F1 Int) (G1 Int) (H1 Int) (I1 Int) (J1 Int) (K1 Int) (L1 Int) (M1 Int) (N1 Int)) (not (and (and (and (and (and (and (and (and (and (and (and (and (and (and (and (and (and (and (and (and (and (and (and (and (and (and (and (and (and (and (and (and (and (and (and (and (and (and (INV_MAIN_42 A B C D E F G H I J) (INV_MAIN_42 K L M N O P Q R S T)) (INV_MAIN_42 U V W X Y Z A1 B1 C1 D1)) (INV_MAIN_42 E1 F1 G1 H1 I1 J1 K1 L1 M1 N1)) (not (= H1 G1))) (not (= P 0))) (not (= P J1))) (= I1 H1)) (= M1 K1)) (= N1 0)) (= U E1)) (= V F1)) (= W G1)) (= X H1)) (= Y H1)) (= Z J1)) (= A1 K1)) (= B1 L1)) (= C1 L1)) (= D1 0)) (= K E1)) (= L F1)) (= M G1)) (= N H1)) (= O G1)) (= Q K1)) (= R L1)) (= S K1)) (= T 0)) (= A E1)) (= B F1)) (= C G1)) (= D H1)) (= E G1)) (= F P)) (= G K1)) (= H L1)) (= I L1)) (= J 0)))))
(assert (forall ((A Int) (B Int) (C Int) (D Int) (E Int) (F Int) (G Int) (H Int) (I Int) (J Int) (K Int) (L Int) (M Int) (N Int) (O Int) (P Int) (Q Int) (R Int) (S Int) (T Int) (U Int) (V Int) (W Int) (X Int) (Y Int) (Z Int) (A1 Int) (B1 Int) (C1 Int) (D1 Int) (E1 Int) (F1 Int) (G1 Int) (H1 Int) (I1 Int) (J1 Int) (K1 Int) (L1 Int) (M1 Int) (N1 Int) (O1 Int) (P1 Int) (Q1 Int) (R1 Int) (S1 Int) (T1 Int) (U1 Int) (V1 Int) (W1 Int) (X1 Int) (Y1 Int) (Z1 Int) (A2 Int) (B2 Int) (C2 Int) (D2 Int) (E2 Int) (F2 Int) (G2 Int) (H2 Int) (I2 Int) (J2 Int) (K2 Int) (L2 Int) (M2 Int) (N2 Int) (O2 Int) (P2 Int) (Q2 Int) (R2 Int) (S2 Int) (T2 Int) (U2 Int) (V2 Int) (W2 Int) (X2 Int) (Y2 Int) (Z2 Int) (A3 Int) (B3 Int) (C3 Int) (D3 Int) (E3 Int) (F3 Int) (G3 Int) (H3 Int) (I3 Int) (J3 Int) (K3 Int) (L3 Int)) (not (and (and (and (and (and (and (and (and (and (and (and (and (and (and (and (and (and (and (and (and (and (and (and (and (and (and (and (and (and (and (and (and (and (and (and (and (and (and (and (and (and (and (and (and (and (and (and (and (and (and (and (and (and (and (and (and (and (and (and (and (and (and (and (and (and (and (and (and (and (and (and (and (and (and (and (and (and (and (and (and (and (and (and (and (and (and (and (and (and (and (and (and (and (and (and (INV_MAIN_42 A B C D E F G H I J) (INV_MAIN_42 K L M N O P Q R S T)) (INV_MAIN_42 U V W X Y Z A1 B1 C1 D1)) (INV_MAIN_42 E1 F1 G1 H1 I1 J1 K1 L1 M1 N1)) (INV_MAIN_42 O1 P1 Q1 R1 S1 T1 U1 V1 W1 X1)) (INV_MAIN_42 Y1 Z1 A2 B2 C2 D2 E2 F2 G2 H2)) (INV_MAIN_42 I2 J2 K2 L2 M2 N2 O2 P2 Q2 R2)) (INV_MAIN_42 S2 T2 U2 V2 W2 X2 Y2 Z2 A3 B3)) (INV_MAIN_42 C3 D3 E3 F3 G3 H3 I3 J3 K3 L3)) (not (and (= G3 E3) (not (= Z H3))))) (not (and (= G3 F3) (not (= D2 H3))))) (not (and (= I3 G3) (not (= B3 L3))))) (not (and (= J3 G3) (not (= R2 L3))))) (not (= F3 E3))) (not (= J3 I3))) (not (= L3 H3))) (not (= R2 B3))) (not (= Z 0))) (not (= Z D2))) (= K3 G3)) (= S2 C3)) (= T2 D3)) (= U2 E3)) (= V2 F3)) (= W2 G3)) (= X2 H3)) (= Y2 I3)) (= Z2 J3)) (= A3 I3)) (= I2 C3)) (= J2 D3)) (= K2 E3)) (= L2 F3)) (= M2 G3)) (= N2 H3)) (= O2 I3)) (= P2 J3)) (= Q2 J3)) (= Y1 C3)) (= Z1 D3)) (= A2 E3)) (= B2 F3)) (= C2 F3)) (= E2 I3)) (= F2 J3)) (= G2 G3)) (= H2 L3)) (= O1 C3)) (= P1 D3)) (= Q1 E3)) (= R1 F3)) (= S1 F3)) (= T1 D2)) (= U1 I3)) (= V1 J3)) (= W1 I3)) (= X1 B3)) (= E1 C3)) (= F1 D3)) (= G1 E3)) (= H1 F3)) (= I1 F3)) (= J1 D2)) (= K1 I3)) (= L1 J3)) (= M1 J3)) (= N1 R2)) (= U C3)) (= V D3)) (= W E3)) (= X F3)) (= Y E3)) (= A1 I3)) (= B1 J3)) (= C1 G3)) (= D1 L3)) (= K C3)) (= L D3)) (= M E3)) (= N F3)) (= O E3)) (= P Z)) (= Q I3)) (= R J3)) (= S I3)) (= T B3)) (= A C3)) (= B D3)) (= C E3)) (= D F3)) (= E E3)) (= F Z)) (= G I3)) (= H J3)) (= I J3)) (= J R2)))))
(assert (forall ((A Int) (B Int) (C Int) (D Int) (E Int) (F Int) (G Int) (H Int) (I Int) (J Int) (K Int) (L Int) (M Int) (N Int) (O Int) (P Int) (Q Int) (R Int) (S Int) (T Int) (U Int) (V Int) (W Int) (X Int) (Y Int) (Z Int) (A1 Int) (B1 Int) (C1 Int) (D1 Int) (E1 Int) (F1 Int) (G1 Int) (H1 Int) (I1 Int) (J1 Int) (K1 Int) (L1 Int) (M1 Int) (N1 Int)) (not (and (and (and (and (and (and (and (and (and (and (and (and (and (and (and (and (and (and (and (and (and (and (and (and (and (and (and (and (and (and (and (and (and (and (and (and (and (and (and (INV_MAIN_42 A B C D E F G H I J) (INV_MAIN_42 K L M N O P Q R S T)) (INV_MAIN_42 U V W X Y Z A1 B1 C1 D1)) (INV_MAIN_42 E1 F1 G1 H1 I1 J1 K1 L1 M1 N1)) (not (= H1 G1))) (not (= L1 K1))) (not (= D1 N1))) (not (= P 0))) (not (= P J1))) (not (= (+ P (- (- N1 J1) D1)) 0))) (= I1 H1)) (= M1 K1)) (= U E1)) (= V F1)) (= W G1)) (= X H1)) (= Y H1)) (= Z J1)) (= A1 K1)) (= B1 L1)) (= C1 L1)) (= K E1)) (= L F1)) (= M G1)) (= N H1)) (= O G1)) (= Q K1)) (= R L1)) (= S K1)) (= T N1)) (= A E1)) (= B F1)) (= C G1)) (= D H1)) (= E G1)) (= F P)) (= G K1)) (= H L1)) (= I L1)) (= J D1)))))
(assert (forall ((A Int) (B Int) (C Int) (D Int) (E Int) (F Int) (G Int) (H Int) (I Int) (J Int) (K Int) (L Int) (M Int) (N Int) (O Int) (P Int) (Q Int) (R Int) (S Int) (T Int) (U Int) (V Int) (W Int) (X Int) (Y Int) (Z Int) (A1 Int) (B1 Int) (C1 Int) (D1 Int) (E1 Int) (F1 Int) (G1 Int) (H1 Int) (I1 Int) (J1 Int) (K1 Int) (L1 Int) (M1 Int) (N1 Int) (O1 Int) (P1 Int) (Q1 Int) (R1 Int) (S1 Int) (T1 Int) (U1 Int) (V1 Int) (W1 Int) (X1 Int) (Y1 Int) (Z1 Int) (A2 Int) (B2 Int) (C2 Int) (D2 Int) (E2 Int) (F2 Int) (G2 Int) (H2 Int) (I2 Int) (J2 Int) (K2 Int) (L2 Int) (M2 Int) (N2 Int) (O2 Int) (P2 Int) (Q2 Int) (R2 Int) (S2 Int) (T2 Int) (U2 Int) (V2 Int) (W2 Int) (X2 Int) (Y2 Int) (Z2 Int) (A3 Int) (B3 Int) (C3 Int) (D3 Int) (E3 Int) (F3 Int) (G3 Int) (H3 Int) (I3 Int) (J3 Int) (K3 Int) (L3 Int) (M3 Int) (N3 Int) (O3 Int) (P3 Int) (Q3 Int) (R3 Int) (S3 Int) (T3 Int) (U3 Int) (V3 Int))(=> (and (and (and (and (and (and (and (and (and (and (and (and (and (and (and (and (and (and (and (and (and (and (and (and (and (and (and (and (and (and (and (and (and (and (and (and (and (and (and (and (and (and (and (and (and (and (and (and (and (and (and (and (and (and (and (and (and (and (and (and (and (and (and (and (and (and (and (and (and (and (and (and (and (and (and (and (and (and (and (and (and (and (and (and (and (and (and (and (and (and (and (and (and (and (and (and (and (and (and (and (and (and (INV_MAIN_42 K L M N O P Q R S T) (INV_MAIN_42 U V W X Y Z A1 B1 C1 D1)) (INV_MAIN_42 E1 F1 G1 H1 I1 J1 K1 L1 M1 N1)) (INV_MAIN_42 O1 P1 Q1 R1 S1 T1 U1 V1 W1 X1)) (INV_MAIN_42 Y1 Z1 A2 B2 C2 D2 E2 F2 G2 H2)) (INV_MAIN_42 I2 J2 K2 L2 M2 N2 O2 P2 Q2 R2)) (INV_MAIN_42 S2 T2 U2 V2 W2 X2 Y2 Z2 A3 B3)) (INV_MAIN_42 C3 D3 E3 F3 G3 H3 I3 J3 K3 L3)) (INV_MAIN_42 M3 N3 O3 P3 Q3 R3 S3 T3 U3 V3)) (not (and (= (- E C) (- 1)) (not (= F A))))) (not (and (= (- E D) (- 1)) (not (= F A))))) (not (and (= (- I G) (- 1)) (not (= L3 J))))) (not (and (= (- I H) (- 1)) (not (= L3 J))))) (not (= A 0))) (not (= L3 0))) (= B A)) (= (- O3 C) (- 1))) (= (- P3 D) (- 1))) (= Q3 E)) (= R3 F)) (= (- S3 G) (- 1))) (= (- T3 H) (- 1))) (= U3 I)) (= V3 J)) (= C3 M3)) (= D3 N3)) (= (- E3 C) (- 1))) (= (- F3 D) (- 1))) (= G3 E)) (= H3 F)) (= (- I3 G) (- 1))) (= (- J3 H) (- 1))) (= (- K3 G) (- 1))) (= S2 M3)) (= T2 N3)) (= (- U2 C) (- 1))) (= (- V2 D) (- 1))) (= W2 E)) (= X2 F)) (= (- Y2 G) (- 1))) (= (- Z2 H) (- 1))) (= (- A3 H) (- 1))) (= B3 L3)) (= I2 M3)) (= J2 N3)) (= (- K2 C) (- 1))) (= (- L2 D) (- 1))) (= (- M2 D) (- 1))) (= N2 A)) (= (- O2 G) (- 1))) (= (- P2 H) (- 1))) (= Q2 I)) (= R2 J)) (= Y1 M3)) (= Z1 N3)) (= (- A2 C) (- 1))) (= (- B2 D) (- 1))) (= (- C2 D) (- 1))) (= D2 A)) (= (- E2 G) (- 1))) (= (- F2 H) (- 1))) (= (- G2 G) (- 1))) (= H2 L3)) (= O1 M3)) (= P1 N3)) (= (- Q1 C) (- 1))) (= (- R1 D) (- 1))) (= (- S1 D) (- 1))) (= T1 A)) (= (- U1 G) (- 1))) (= (- V1 H) (- 1))) (= (- W1 H) (- 1))) (= X1 L3)) (= E1 M3)) (= F1 N3)) (= (- G1 C) (- 1))) (= (- H1 D) (- 1))) (= (- I1 C) (- 1))) (= J1 A)) (= (- K1 G) (- 1))) (= (- L1 H) (- 1))) (= M1 I)) (= N1 J)) (= U M3)) (= V N3)) (= (- W C) (- 1))) (= (- X D) (- 1))) (= (- Y C) (- 1))) (= Z A)) (= (- A1 G) (- 1))) (= (- B1 H) (- 1))) (= (- C1 G) (- 1))) (= D1 L3)) (= K M3)) (= L N3)) (= (- M C) (- 1))) (= (- N D) (- 1))) (= (- O C) (- 1))) (= P A)) (= (- Q G) (- 1))) (= (- R H) (- 1))) (= (- S H) (- 1))) (= T L3)) (INV_MAIN_42 A B C D E F G H I J))))
(assert (forall ((A Int) (B Int) (C Int) (D Int) (E Int) (F Int) (G Int) (H Int) (I Int) (J Int) (K Int) (L Int) (M Int) (N Int) (O Int) (P Int) (Q Int) (R Int) (S Int) (T Int) (U Int) (V Int) (W Int) (X Int) (Y Int) (Z Int) (A1 Int) (B1 Int) (C1 Int) (D1 Int) (E1 Int) (F1 Int) (G1 Int) (H1 Int) (I1 Int) (J1 Int) (K1 Int) (L1 Int) (M1 Int) (N1 Int) (O1 Int) (P1 Int) (Q1 Int) (R1 Int) (S1 Int) (T1 Int) (U1 Int) (V1 Int) (W1 Int) (X1 Int) (Y1 Int) (Z1 Int) (A2 Int) (B2 Int) (C2 Int) (D2 Int) (E2 Int) (F2 Int) (G2 Int) (H2 Int) (I2 Int) (J2 Int) (K2 Int) (L2 Int) (M2 Int) (N2 Int) (O2 Int) (P2 Int) (Q2 Int) (R2 Int))(=> (and (and (and (and (and (and (and (and (and (and (and (and (and (and (and (and (and (and (and (and (and (and (and (and (and (and (and (and (and (and (and (and (and (and (and (and (and (and (and (and (and (and (and (and (and (and (and (and (and (and (and (and (and (and (and (and (and (and (and (and (and (and (and (and (and (and (and (and (INV_MAIN_42 K L M N O P Q R S T) (INV_MAIN_42 U V W X Y Z A1 B1 C1 D1)) (INV_MAIN_42 E1 F1 G1 H1 I1 J1 K1 L1 M1 N1)) (INV_MAIN_42 O1 P1 Q1 R1 S1 T1 U1 V1 W1 X1)) (INV_MAIN_42 Y1 Z1 A2 B2 C2 D2 E2 F2 G2 H2)) (INV_MAIN_42 I2 J2 K2 L2 M2 N2 O2 P2 Q2 R2)) (not (and (= (- E C) (- 1)) (not (= F A))))) (not (and (= (- E D) (- 1)) (not (= F A))))) (not (and (= I H) (not (= J 0))))) (not (= A 0))) (= B A)) (= (- K2 C) (- 1))) (= (- L2 D) (- 1))) (= M2 E)) (= N2 F)) (= O2 G)) (= P2 H)) (= Q2 I)) (= R2 J)) (= Y1 I2)) (= Z1 J2)) (= (- A2 C) (- 1))) (= (- B2 D) (- 1))) (= C2 E)) (= D2 F)) (= E2 G)) (= F2 H)) (= G2 H)) (= H2 0)) (= O1 I2)) (= P1 J2)) (= (- Q1 C) (- 1))) (= (- R1 D) (- 1))) (= (- S1 D) (- 1))) (= T1 A)) (= U1 G)) (= V1 H)) (= W1 I)) (= X1 J)) (= E1 I2)) (= F1 J2)) (= (- G1 C) (- 1))) (= (- H1 D) (- 1))) (= (- I1 D) (- 1))) (= J1 A)) (= K1 G)) (= L1 H)) (= M1 H)) (= N1 0)) (= U I2)) (= V J2)) (= (- W C) (- 1))) (= (- X D) (- 1))) (= (- Y C) (- 1))) (= Z A)) (= A1 G)) (= B1 H)) (= C1 I)) (= D1 J)) (= K I2)) (= L J2)) (= (- M C) (- 1))) (= (- N D) (- 1))) (= (- O C) (- 1))) (= P A)) (= Q G)) (= R H)) (= S H)) (= T 0)) (INV_MAIN_42 A B C D E F G H I J))))
(assert (forall ((A Int) (B Int) (C Int) (D Int) (E Int) (F Int) (G Int) (H Int) (I Int) (J Int) (K Int) (L Int) (M Int) (N Int) (O Int) (P Int) (Q Int) (R Int) (S Int) (T Int) (U Int) (V Int) (W Int) (X Int) (Y Int) (Z Int) (A1 Int) (B1 Int) (C1 Int) (D1 Int) (E1 Int) (F1 Int) (G1 Int) (H1 Int) (I1 Int) (J1 Int) (K1 Int) (L1 Int) (M1 Int) (N1 Int) (O1 Int) (P1 Int) (Q1 Int) (R1 Int) (S1 Int) (T1 Int) (U1 Int) (V1 Int) (W1 Int) (X1 Int) (Y1 Int) (Z1 Int) (A2 Int) (B2 Int) (C2 Int) (D2 Int) (E2 Int) (F2 Int) (G2 Int) (H2 Int) (I2 Int) (J2 Int) (K2 Int) (L2 Int) (M2 Int) (N2 Int) (O2 Int) (P2 Int) (Q2 Int) (R2 Int) (S2 Int) (T2 Int) (U2 Int) (V2 Int) (W2 Int) (X2 Int) (Y2 Int) (Z2 Int) (A3 Int) (B3 Int) (C3 Int) (D3 Int) (E3 Int) (F3 Int) (G3 Int) (H3 Int) (I3 Int) (J3 Int) (K3 Int) (L3 Int) (M3 Int) (N3 Int) (O3 Int) (P3 Int) (Q3 Int) (R3 Int) (S3 Int) (T3 Int) (U3 Int) (V3 Int))(=> (and (and (and (and (and (and (and (and (and (and (and (and (and (and (and (and (and (and (and (and (and (and (and (and (and (and (and (and (and (and (and (and (and (and (and (and (and (and (and (and (and (and (and (and (and (and (and (and (and (and (and (and (and (and (and (and (and (and (and (and (and (and (and (and (and (and (and (and (and (and (and (and (and (and (and (and (and (and (and (and (and (and (and (and (and (and (and (and (and (and (and (and (and (and (and (and (and (and (and (and (and (and (INV_MAIN_42 K L M N O P Q R S T) (INV_MAIN_42 U V W X Y Z A1 B1 C1 D1)) (INV_MAIN_42 E1 F1 G1 H1 I1 J1 K1 L1 M1 N1)) (INV_MAIN_42 O1 P1 Q1 R1 S1 T1 U1 V1 W1 X1)) (INV_MAIN_42 Y1 Z1 A2 B2 C2 D2 E2 F2 G2 H2)) (INV_MAIN_42 I2 J2 K2 L2 M2 N2 O2 P2 Q2 R2)) (INV_MAIN_42 S2 T2 U2 V2 W2 X2 Y2 Z2 A3 B3)) (INV_MAIN_42 C3 D3 E3 F3 G3 H3 I3 J3 K3 L3)) (INV_MAIN_42 M3 N3 O3 P3 Q3 R3 S3 T3 U3 V3)) (not (and (= (- E C) (- 1)) (not (= F A))))) (not (and (= (- E D) (- 1)) (not (= F A))))) (not (and (= I G) (not (= B3 J))))) (not (and (= I H) (not (= L3 J))))) (not (= A 0))) (not (= H G))) (not (= B3 L3))) (= B A)) (= (- O3 C) (- 1))) (= (- P3 D) (- 1))) (= Q3 E)) (= R3 F)) (= S3 G)) (= T3 H)) (= U3 I)) (= V3 J)) (= C3 M3)) (= D3 N3)) (= (- E3 C) (- 1))) (= (- F3 D) (- 1))) (= G3 E)) (= H3 F)) (= I3 G)) (= J3 H)) (= K3 H)) (= S2 M3)) (= T2 N3)) (= (- U2 C) (- 1))) (= (- V2 D) (- 1))) (= W2 E)) (= X2 F)) (= Y2 G)) (= Z2 H)) (= A3 G)) (= I2 M3)) (= J2 N3)) (= (- K2 C) (- 1))) (= (- L2 D) (- 1))) (= (- M2 D) (- 1))) (= N2 A)) (= O2 G)) (= P2 H)) (= Q2 I)) (= R2 J)) (= Y1 M3)) (= Z1 N3)) (= (- A2 C) (- 1))) (= (- B2 D) (- 1))) (= (- C2 D) (- 1))) (= D2 A)) (= E2 G)) (= F2 H)) (= G2 H)) (= H2 L3)) (= O1 M3)) (= P1 N3)) (= (- Q1 C) (- 1))) (= (- R1 D) (- 1))) (= (- S1 D) (- 1))) (= T1 A)) (= U1 G)) (= V1 H)) (= W1 G)) (= X1 B3)) (= E1 M3)) (= F1 N3)) (= (- G1 C) (- 1))) (= (- H1 D) (- 1))) (= (- I1 C) (- 1))) (= J1 A)) (= K1 G)) (= L1 H)) (= M1 I)) (= N1 J)) (= U M3)) (= V N3)) (= (- W C) (- 1))) (= (- X D) (- 1))) (= (- Y C) (- 1))) (= Z A)) (= A1 G)) (= B1 H)) (= C1 H)) (= D1 L3)) (= K M3)) (= L N3)) (= (- M C) (- 1))) (= (- N D) (- 1))) (= (- O C) (- 1))) (= P A)) (= Q G)) (= R H)) (= S G)) (= T B3)) (INV_MAIN_42 A B C D E F G H I J))))
(assert (forall ((A Int) (B Int) (C Int) (D Int) (E Int) (F Int) (G Int) (H Int) (I Int) (J Int) (K Int) (L Int) (M Int) (N Int) (O Int) (P Int) (Q Int) (R Int) (S Int) (T Int) (U Int) (V Int) (W Int) (X Int) (Y Int) (Z Int) (A1 Int) (B1 Int) (C1 Int) (D1 Int) (E1 Int) (F1 Int) (G1 Int) (H1 Int) (I1 Int) (J1 Int) (K1 Int) (L1 Int) (M1 Int) (N1 Int) (O1 Int) (P1 Int) (Q1 Int) (R1 Int) (S1 Int) (T1 Int) (U1 Int) (V1 Int) (W1 Int) (X1 Int) (Y1 Int) (Z1 Int) (A2 Int) (B2 Int) (C2 Int) (D2 Int) (E2 Int) (F2 Int) (G2 Int) (H2 Int) (I2 Int) (J2 Int) (K2 Int) (L2 Int) (M2 Int) (N2 Int) (O2 Int) (P2 Int) (Q2 Int) (R2 Int) (S2 Int) (T2 Int) (U2 Int) (V2 Int) (W2 Int) (X2 Int) (Y2 Int) (Z2 Int) (A3 Int) (B3 Int) (C3 Int) (D3 Int) (E3 Int) (F3 Int) (G3 Int) (H3 Int) (I3 Int) (J3 Int) (K3 Int) (L3 Int) (M3 Int) (N3 Int) (O3 Int) (P3 Int) (Q3 Int) (R3 Int) (S3 Int) (T3 Int) (U3 Int) (V3 Int))(=> (and (and (and (and (and (and (and (and (and (and (and (and (and (and (and (and (and (and (and (and (and (and (and (and (and (and (and (and (and (and (and (and (and (and (and (and (and (and (and (and (and (and (and (and (and (and (and (and (and (and (and (and (and (and (and (and (and (and (and (and (and (and (and (and (and (and (and (and (and (and (and (and (and (and (and (and (and (and (and (and (and (and (and (and (and (and (and (and (and (and (and (and (and (and (and (and (and (and (and (and (and (and (INV_MAIN_42 K L M N O P Q R S T) (INV_MAIN_42 U V W X Y Z A1 B1 C1 D1)) (INV_MAIN_42 E1 F1 G1 H1 I1 J1 K1 L1 M1 N1)) (INV_MAIN_42 O1 P1 Q1 R1 S1 T1 U1 V1 W1 X1)) (INV_MAIN_42 Y1 Z1 A2 B2 C2 D2 E2 F2 G2 H2)) (INV_MAIN_42 I2 J2 K2 L2 M2 N2 O2 P2 Q2 R2)) (INV_MAIN_42 S2 T2 U2 V2 W2 X2 Y2 Z2 A3 B3)) (INV_MAIN_42 C3 D3 E3 F3 G3 H3 I3 J3 K3 L3)) (INV_MAIN_42 M3 N3 O3 P3 Q3 R3 S3 T3 U3 V3)) (not (and (= E C) (not (= J1 F))))) (not (and (= E D) (not (= N2 F))))) (not (and (= (- I G) (- 1)) (not (= L3 J))))) (not (and (= (- I H) (- 1)) (not (= L3 J))))) (not (= D C))) (not (= L3 0))) (not (= J1 N2))) (= M3 A)) (= N3 B)) (= O3 C)) (= P3 D)) (= Q3 E)) (= R3 F)) (= (- S3 G) (- 1))) (= (- T3 H) (- 1))) (= U3 I)) (= V3 J)) (= C3 A)) (= D3 B)) (= E3 C)) (= F3 D)) (= G3 E)) (= H3 F)) (= (- I3 G) (- 1))) (= (- J3 H) (- 1))) (= (- K3 G) (- 1))) (= S2 A)) (= T2 B)) (= U2 C)) (= V2 D)) (= W2 E)) (= X2 F)) (= (- Y2 G) (- 1))) (= (- Z2 H) (- 1))) (= (- A3 H) (- 1))) (= B3 L3)) (= I2 A)) (= J2 B)) (= K2 C)) (= L2 D)) (= M2 D)) (= (- O2 G) (- 1))) (= (- P2 H) (- 1))) (= Q2 I)) (= R2 J)) (= Y1 A)) (= Z1 B)) (= A2 C)) (= B2 D)) (= C2 D)) (= D2 N2)) (= (- E2 G) (- 1))) (= (- F2 H) (- 1))) (= (- G2 G) (- 1))) (= H2 L3)) (= O1 A)) (= P1 B)) (= Q1 C)) (= R1 D)) (= S1 D)) (= T1 N2)) (= (- U1 G) (- 1))) (= (- V1 H) (- 1))) (= (- W1 H) (- 1))) (= X1 L3)) (= E1 A)) (= F1 B)) (= G1 C)) (= H1 D)) (= I1 C)) (= (- K1 G) (- 1))) (= (- L1 H) (- 1))) (= M1 I)) (= N1 J)) (= U A)) (= V B)) (= W C)) (= X D)) (= Y C)) (= Z J1)) (= (- A1 G) (- 1))) (= (- B1 H) (- 1))) (= (- C1 G) (- 1))) (= D1 L3)) (= K A)) (= L B)) (= M C)) (= N D)) (= O C)) (= P J1)) (= (- Q G) (- 1))) (= (- R H) (- 1))) (= (- S H) (- 1))) (= T L3)) (INV_MAIN_42 A B C D E F G H I J))))
(assert (forall ((A Int) (B Int) (C Int) (D Int) (E Int) (F Int) (G Int) (H Int) (I Int) (J Int) (K Int) (L Int) (M Int) (N Int) (O Int) (P Int) (Q Int) (R Int) (S Int) (T Int) (U Int) (V Int) (W Int) (X Int) (Y Int) (Z Int) (A1 Int) (B1 Int) (C1 Int) (D1 Int) (E1 Int) (F1 Int) (G1 Int) (H1 Int) (I1 Int) (J1 Int) (K1 Int) (L1 Int) (M1 Int) (N1 Int) (O1 Int) (P1 Int) (Q1 Int) (R1 Int) (S1 Int) (T1 Int) (U1 Int) (V1 Int) (W1 Int) (X1 Int) (Y1 Int) (Z1 Int) (A2 Int) (B2 Int) (C2 Int) (D2 Int) (E2 Int) (F2 Int) (G2 Int) (H2 Int) (I2 Int) (J2 Int) (K2 Int) (L2 Int) (M2 Int) (N2 Int) (O2 Int) (P2 Int) (Q2 Int) (R2 Int))(=> (and (and (and (and (and (and (and (and (and (and (and (and (and (and (and (and (and (and (and (and (and (and (and (and (and (and (and (and (and (and (and (and (and (and (and (and (and (and (and (and (and (and (and (and (and (and (and (and (and (and (and (and (and (and (and (and (and (and (and (and (and (and (and (and (and (and (and (and (INV_MAIN_42 K L M N O P Q R S T) (INV_MAIN_42 U V W X Y Z A1 B1 C1 D1)) (INV_MAIN_42 E1 F1 G1 H1 I1 J1 K1 L1 M1 N1)) (INV_MAIN_42 O1 P1 Q1 R1 S1 T1 U1 V1 W1 X1)) (INV_MAIN_42 Y1 Z1 A2 B2 C2 D2 E2 F2 G2 H2)) (INV_MAIN_42 I2 J2 K2 L2 M2 N2 O2 P2 Q2 R2)) (not (and (= E C) (not (= F 0))))) (not (and (= (- I G) (- 1)) (not (= H2 J))))) (not (and (= (- I H) (- 1)) (not (= H2 J))))) (not (= H2 0))) (= I2 A)) (= J2 B)) (= K2 C)) (= L2 D)) (= M2 E)) (= N2 F)) (= (- O2 G) (- 1))) (= (- P2 H) (- 1))) (= Q2 I)) (= R2 J)) (= Y1 A)) (= Z1 B)) (= A2 C)) (= B2 D)) (= C2 E)) (= D2 F)) (= (- E2 G) (- 1))) (= (- F2 H) (- 1))) (= (- G2 G) (- 1))) (= O1 A)) (= P1 B)) (= Q1 C)) (= R1 D)) (= S1 E)) (= T1 F)) (= (- U1 G) (- 1))) (= (- V1 H) (- 1))) (= (- W1 H) (- 1))) (= X1 H2)) (= E1 A)) (= F1 B)) (= G1 C)) (= H1 D)) (= I1 C)) (= J1 0)) (= (- K1 G) (- 1))) (= (- L1 H) (- 1))) (= M1 I)) (= N1 J)) (= U A)) (= V B)) (= W C)) (= X D)) (= Y C)) (= Z 0)) (= (- A1 G) (- 1))) (= (- B1 H) (- 1))) (= (- C1 G) (- 1))) (= D1 H2)) (= K A)) (= L B)) (= M C)) (= N D)) (= O C)) (= P 0)) (= (- Q G) (- 1))) (= (- R H) (- 1))) (= (- S H) (- 1))) (= T H2)) (INV_MAIN_42 A B C D E F G H I J))))
(check-sat)
